(set-info :smt-lib-version 2.6)
(set-info :category "crafted")
(set-logic QF_FF)
(define-sort FF0 () (_ FiniteField 52435875175126190479447740508185965837690552500527637822603658699938581184513))
(declare-fun x17 () Bool)
(declare-fun x16 () Bool)
(declare-fun x15 () Bool)
(declare-fun x14 () Bool)
(declare-fun x13 () Bool)
(declare-fun x12 () Bool)
(declare-fun x11 () Bool)
(declare-fun x10 () Bool)
(declare-fun x9 () Bool)
(declare-fun x8 () Bool)
(declare-fun x7 () Bool)
(declare-fun x6 () Bool)
(declare-fun x5 () Bool)
(declare-fun x4 () Bool)
(declare-fun x3 () Bool)
(declare-fun x2 () Bool)
(declare-fun x1 () Bool)
(declare-fun x0 () Bool)
(declare-fun out () FF0)
(declare-fun _34 () FF0)
(declare-fun _33 () FF0)
(declare-fun _9 () FF0)
(declare-fun _32 () FF0)
(declare-fun _8 () FF0)
(declare-fun _31 () FF0)
(declare-fun _7 () FF0)
(declare-fun _30 () FF0)
(declare-fun _6 () FF0)
(declare-fun _29 () FF0)
(declare-fun _5 () FF0)
(declare-fun _28 () FF0)
(declare-fun _4 () FF0)
(declare-fun _27 () FF0)
(declare-fun _3 () FF0)
(declare-fun _26 () FF0)
(declare-fun _2 () FF0)
(declare-fun _25 () FF0)
(declare-fun _17 () FF0)
(declare-fun _24 () FF0)
(declare-fun _16 () FF0)
(declare-fun _23 () FF0)
(declare-fun _15 () FF0)
(declare-fun _22 () FF0)
(declare-fun _14 () FF0)
(declare-fun _21 () FF0)
(declare-fun _13 () FF0)
(declare-fun _20 () FF0)
(declare-fun _12 () FF0)
(declare-fun _19 () FF0)
(declare-fun _11 () FF0)
(declare-fun _18 () FF0)
(declare-fun _10 () FF0)
(declare-fun _1 () FF0)
(declare-fun _0 () FF0)
(assert 
  (let ((let0 x17))
  (let ((let1 x16))
  (let ((let2 x15))
  (let ((let3 x14))
  (let ((let4 x13))
  (let ((let5 x12))
  (let ((let6 x11))
  (let ((let7 x10))
  (let ((let8 x9))
  (let ((let9 x8))
  (let ((let10 x7))
  (let ((let11 x6))
  (let ((let12 x5))
  (let ((let13 x4))
  (let ((let14 x3))
  (let ((let15 x2))
  (let ((let16 x1))
  (let ((let17 x0))
  (let ((let18 (or let17 let16 let15 let14 let13 let12 let11 let10 let9 let8 let7 let6 let5 let4 let3 let2 let1 let0)))
  (let ((let19 out))
  (let ((let20 (as ff1 FF0)))
  (let ((let21 (= let20 let19)))
  (let ((let22 (= let21 let18)))
  (let ((let23 (as ff0 FF0)))
  (let ((let24 (= let23 let19)))
  (let ((let25 (or let21 let24)))
  (let ((let26 (and let25 let22)))
  (let ((let27 (as ff52435875175126190479447740508185965837690552500527637822603658699938581184512 FF0)))
  (let ((let28 _34))
  (let ((let29 (ff.mul let28 let27)))
  (let ((let30 _33))
  (let ((let31 _9))
  (let ((let32 (ff.add let31 let30 let29)))
  (let ((let33 (ff.mul let30 let31)))
  (let ((let34 (= let33 let32)))
  (let ((let35 (ff.mul let30 let27)))
  (let ((let36 _32))
  (let ((let37 _8))
  (let ((let38 (ff.add let37 let36 let35)))
  (let ((let39 (ff.mul let36 let37)))
  (let ((let40 (= let39 let38)))
  (let ((let41 (ff.mul let36 let27)))
  (let ((let42 _31))
  (let ((let43 _7))
  (let ((let44 (ff.add let43 let42 let41)))
  (let ((let45 (ff.mul let42 let43)))
  (let ((let46 (= let45 let44)))
  (let ((let47 (ff.mul let42 let27)))
  (let ((let48 _30))
  (let ((let49 _6))
  (let ((let50 (ff.add let49 let48 let47)))
  (let ((let51 (ff.mul let48 let49)))
  (let ((let52 (= let51 let50)))
  (let ((let53 (ff.mul let48 let27)))
  (let ((let54 _29))
  (let ((let55 _5))
  (let ((let56 (ff.add let55 let54 let53)))
  (let ((let57 (ff.mul let54 let55)))
  (let ((let58 (= let57 let56)))
  (let ((let59 (ff.mul let54 let27)))
  (let ((let60 _28))
  (let ((let61 _4))
  (let ((let62 (ff.add let61 let60 let59)))
  (let ((let63 (ff.mul let60 let61)))
  (let ((let64 (= let63 let62)))
  (let ((let65 (ff.mul let60 let27)))
  (let ((let66 _27))
  (let ((let67 _3))
  (let ((let68 (ff.add let67 let66 let65)))
  (let ((let69 (ff.mul let66 let67)))
  (let ((let70 (= let69 let68)))
  (let ((let71 (ff.mul let66 let27)))
  (let ((let72 _26))
  (let ((let73 _2))
  (let ((let74 (ff.add let73 let72 let71)))
  (let ((let75 (ff.mul let72 let73)))
  (let ((let76 (= let75 let74)))
  (let ((let77 (ff.mul let72 let27)))
  (let ((let78 _25))
  (let ((let79 _17))
  (let ((let80 (ff.add let79 let78 let77)))
  (let ((let81 (ff.mul let78 let79)))
  (let ((let82 (= let81 let80)))
  (let ((let83 (ff.mul let78 let27)))
  (let ((let84 _24))
  (let ((let85 _16))
  (let ((let86 (ff.add let85 let84 let83)))
  (let ((let87 (ff.mul let84 let85)))
  (let ((let88 (= let87 let86)))
  (let ((let89 (ff.mul let84 let27)))
  (let ((let90 _23))
  (let ((let91 _15))
  (let ((let92 (ff.add let91 let90 let89)))
  (let ((let93 (ff.mul let90 let91)))
  (let ((let94 (= let93 let92)))
  (let ((let95 (ff.mul let90 let27)))
  (let ((let96 _22))
  (let ((let97 _14))
  (let ((let98 (ff.add let97 let96 let95)))
  (let ((let99 (ff.mul let96 let97)))
  (let ((let100 (= let99 let98)))
  (let ((let101 (ff.mul let96 let27)))
  (let ((let102 _21))
  (let ((let103 _13))
  (let ((let104 (ff.add let103 let102 let101)))
  (let ((let105 (ff.mul let102 let103)))
  (let ((let106 (= let105 let104)))
  (let ((let107 (ff.mul let102 let27)))
  (let ((let108 _20))
  (let ((let109 _12))
  (let ((let110 (ff.add let109 let108 let107)))
  (let ((let111 (ff.mul let108 let109)))
  (let ((let112 (= let111 let110)))
  (let ((let113 (ff.mul let108 let27)))
  (let ((let114 _19))
  (let ((let115 _11))
  (let ((let116 (ff.add let115 let114 let113)))
  (let ((let117 (ff.mul let114 let115)))
  (let ((let118 (= let117 let116)))
  (let ((let119 (ff.mul let114 let27)))
  (let ((let120 _18))
  (let ((let121 _10))
  (let ((let122 (ff.add let121 let120 let119)))
  (let ((let123 (ff.mul let120 let121)))
  (let ((let124 (= let123 let122)))
  (let ((let125 (ff.mul let120 let27)))
  (let ((let126 _1))
  (let ((let127 _0))
  (let ((let128 (ff.add let127 let126 let125)))
  (let ((let129 (ff.mul let127 let126)))
  (let ((let130 (= let129 let128)))
  (let ((let131 (ff.mul let79 let79)))
  (let ((let132 (= let131 let79)))
  (let ((let133 (ff.mul let85 let85)))
  (let ((let134 (= let133 let85)))
  (let ((let135 (ff.mul let91 let91)))
  (let ((let136 (= let135 let91)))
  (let ((let137 (ff.mul let97 let97)))
  (let ((let138 (= let137 let97)))
  (let ((let139 (ff.mul let103 let103)))
  (let ((let140 (= let139 let103)))
  (let ((let141 (ff.mul let109 let109)))
  (let ((let142 (= let141 let109)))
  (let ((let143 (ff.mul let115 let115)))
  (let ((let144 (= let143 let115)))
  (let ((let145 (ff.mul let121 let121)))
  (let ((let146 (= let145 let121)))
  (let ((let147 (ff.mul let31 let31)))
  (let ((let148 (= let147 let31)))
  (let ((let149 (ff.mul let37 let37)))
  (let ((let150 (= let149 let37)))
  (let ((let151 (ff.mul let43 let43)))
  (let ((let152 (= let151 let43)))
  (let ((let153 (ff.mul let49 let49)))
  (let ((let154 (= let153 let49)))
  (let ((let155 (ff.mul let55 let55)))
  (let ((let156 (= let155 let55)))
  (let ((let157 (ff.mul let61 let61)))
  (let ((let158 (= let157 let61)))
  (let ((let159 (ff.mul let67 let67)))
  (let ((let160 (= let159 let67)))
  (let ((let161 (ff.mul let73 let73)))
  (let ((let162 (= let161 let73)))
  (let ((let163 (ff.mul let126 let126)))
  (let ((let164 (= let163 let126)))
  (let ((let165 (ff.mul let127 let127)))
  (let ((let166 (= let165 let127)))
  (let ((let167 (and let166 let164 let162 let160 let158 let156 let154 let152 let150 let148 let146 let144 let142 let140 let138 let136 let134 let132 let130 let124 let118 let112 let106 let100 let94 let88 let82 let76 let70 let64 let58 let52 let46 let40 let34)))
  (let ((let168 (ite let15 let20 let23)))
  (let ((let169 (= let121 let168)))
  (let ((let170 (ite let0 let20 let23)))
  (let ((let171 (= let31 let170)))
  (let ((let172 (ite let7 let20 let23)))
  (let ((let173 (= let73 let172)))
  (let ((let174 (ite let3 let20 let23)))
  (let ((let175 (= let49 let174)))
  (let ((let176 (ite let4 let20 let23)))
  (let ((let177 (= let55 let176)))
  (let ((let178 (ite let9 let20 let23)))
  (let ((let179 (= let85 let178)))
  (let ((let180 (ite let12 let20 let23)))
  (let ((let181 (= let103 let180)))
  (let ((let182 (ite let14 let20 let23)))
  (let ((let183 (= let115 let182)))
  (let ((let184 (ite let8 let20 let23)))
  (let ((let185 (= let79 let184)))
  (let ((let186 (ite let11 let20 let23)))
  (let ((let187 (= let97 let186)))
  (let ((let188 (ite let1 let20 let23)))
  (let ((let189 (= let37 let188)))
  (let ((let190 (ite let17 let20 let23)))
  (let ((let191 (= let127 let190)))
  (let ((let192 (ite let2 let20 let23)))
  (let ((let193 (= let43 let192)))
  (let ((let194 (ite let5 let20 let23)))
  (let ((let195 (= let61 let194)))
  (let ((let196 (ite let10 let20 let23)))
  (let ((let197 (= let91 let196)))
  (let ((let198 (ite let13 let20 let23)))
  (let ((let199 (= let109 let198)))
  (let ((let200 (ite let6 let20 let23)))
  (let ((let201 (= let67 let200)))
  (let ((let202 (ite let16 let20 let23)))
  (let ((let203 (= let126 let202)))
  (let ((let204 (and let203 let201 let199 let197 let195 let193 let191 let189 let187 let185 let183 let181 let179 let177 let175 let173 let171 let169)))
  (let ((let205 (and let204 let167)))
  (let ((let206 (=> let205 let26)))
  (let ((let207 (not let206)))
  let207
))))))))))))))))))))))))))))))))))))))))))))))))))))))))))))))))))))))))))))))))))))))))))))))))))))))))))))))))))))))))))))))))))))))))))))))))))))))))))))))))))))))))))))))))))))))))))))))))))))))))))))))))
)
(check-sat)
